N = 798;
M = 1976;
Edge_Start = [1, 1, 2, 2, 3, 3, 4, 4, 5, 5, 6, 7, 7, 7, 8, 8, 9, 9, 9, 10, 10, 11, 11, 11, 12, 12, 13, 13, 14, 15, 15, 15, 16, 16, 17, 17, 17, 18, 18, 19, 19, 20, 21, 21, 21, 22, 22, 23, 23, 24, 24, 25, 25, 25, 26, 27, 27, 28, 28, 29, 29, 29, 30, 30, 31, 31, 31, 32, 32, 33, 33, 33, 34, 34, 35, 35, 35, 36, 37, 37, 38, 38, 39, 40, 40, 41, 41, 41, 42, 42, 43, 43, 44, 44, 45, 45, 45, 46, 46, 46, 47, 47, 47, 48, 48, 48, 49, 49, 49, 50, 50, 50, 51, 51, 51, 52, 52, 52, 53, 53, 53, 54, 54, 54, 55, 55, 55, 56, 56, 56, 57, 57, 57, 58, 58, 58, 59, 59, 59, 60, 60, 60, 61, 61, 61, 62, 62, 63, 63, 64, 64, 64, 65, 65, 65, 66, 66, 66, 67, 67, 67, 68, 68, 69, 69, 70, 70, 70, 71, 71, 71, 72, 72, 72, 73, 73, 74, 74, 75, 75, 75, 76, 76, 76, 77, 77, 77, 78, 78, 79, 79, 80, 81, 81, 82, 82, 82, 83, 83, 83, 84, 84, 85, 86, 87, 88, 88, 89, 89, 89, 90, 90, 91, 91, 91, 92, 92, 92, 93, 93, 93, 94, 94, 94, 95, 95, 95, 96, 96, 96, 97, 97, 97, 98, 98, 99, 99, 99, 100, 100, 100, 101, 101, 101, 102, 102, 103, 104, 104, 104, 105, 105, 105, 106, 106, 106, 107, 107, 107, 108, 108, 108, 109, 109, 109, 110, 110, 110, 111, 111, 111, 112, 112, 113, 113, 114, 114, 114, 115, 115, 115, 116, 116, 117, 118, 118, 119, 119, 120, 120, 121, 121, 121, 122, 122, 122, 123, 123, 124, 124, 125, 125, 125, 126, 126, 126, 127, 127, 127, 128, 128, 128, 129, 129, 129, 130, 130, 131, 131, 131, 132, 132, 132, 133, 134, 135, 135, 136, 136, 136, 137, 137, 138, 139, 139, 139, 140, 140, 140, 141, 141, 142, 142, 143, 143, 143, 144, 144, 144, 145, 145, 146, 146, 147, 147, 148, 148, 149, 149, 150, 150, 151, 151, 151, 152, 152, 152, 153, 153, 154, 154, 154, 155, 155, 156, 156, 157, 157, 157, 158, 158, 158, 159, 159, 160, 160, 161, 161, 161, 162, 162, 163, 163, 163, 164, 164, 165, 165, 165, 166, 167, 167, 168, 169, 169, 170, 170, 170, 171, 171, 171, 172, 172, 172, 173, 173, 174, 174, 175, 175, 176, 176, 177, 177, 177, 178, 178, 178, 179, 179, 179, 180, 180, 180, 181, 181, 181, 182, 183, 183, 184, 184, 185, 185, 186, 186, 186, 187, 187, 187, 188, 188, 188, 189, 189, 189, 190, 190, 191, 191, 192, 192, 192, 193, 193, 194, 194, 194, 195, 195, 195, 196, 196, 196, 197, 197, 197, 198, 198, 198, 199, 199, 200, 200, 201, 201, 201, 202, 202, 203, 203, 204, 205, 205, 206, 206, 207, 207, 208, 209, 210, 210, 211, 211, 211, 212, 212, 212, 213, 213, 213, 214, 214, 215, 215, 215, 216, 216, 217, 218, 218, 218, 219, 219, 219, 220, 220, 220, 221, 221, 222, 222, 223, 223, 223, 224, 224, 224, 225, 225, 226, 226, 227, 227, 227, 228, 228, 229, 229, 230, 230, 230, 231, 231, 231, 232, 232, 232, 233, 233, 233, 234, 234, 235, 236, 236, 237, 237, 237, 238, 238, 238, 239, 239, 240, 240, 241, 241, 241, 242, 242, 242, 243, 243, 244, 244, 244, 245, 245, 245, 246, 246, 247, 248, 248, 248, 249, 249, 250, 250, 251, 251, 251, 252, 252, 253, 253, 254, 254, 254, 255, 255, 255, 256, 256, 256, 257, 257, 258, 258, 258, 259, 259, 259, 260, 260, 261, 261, 262, 262, 263, 263, 264, 264, 265, 265, 266, 266, 266, 267, 267, 267, 268, 268, 268, 269, 269, 270, 271, 271, 271, 272, 272, 272, 273, 273, 273, 274, 274, 274, 275, 275, 276, 276, 277, 277, 277, 278, 278, 279, 280, 280, 281, 281, 282, 282, 282, 283, 283, 283, 284, 284, 284, 285, 285, 285, 286, 286, 286, 287, 287, 288, 288, 288, 289, 289, 289, 290, 290, 290, 291, 291, 291, 292, 292, 292, 293, 293, 294, 294, 294, 295, 295, 296, 296, 297, 297, 298, 298, 298, 299, 299, 300, 301, 301, 301, 302, 302, 303, 303, 304, 304, 304, 305, 305, 306, 306, 306, 307, 307, 307, 308, 308, 309, 310, 310, 311, 311, 312, 312, 313, 313, 313, 314, 314, 314, 315, 315, 316, 316, 317, 317, 317, 318, 318, 318, 319, 319, 320, 320, 321, 321, 322, 322, 322, 323, 323, 323, 324, 324, 324, 325, 325, 325, 326, 326, 327, 327, 328, 329, 329, 330, 330, 331, 331, 331, 332, 332, 332, 333, 333, 334, 334, 334, 335, 335, 336, 336, 336, 337, 337, 337, 338, 338, 339, 340, 340, 341, 341, 341, 342, 342, 342, 343, 343, 344, 344, 345, 345, 346, 346, 347, 347, 347, 348, 348, 349, 349, 350, 350, 350, 351, 351, 351, 352, 352, 352, 353, 353, 353, 354, 354, 354, 355, 355, 355, 356, 356, 356, 357, 357, 357, 358, 358, 359, 359, 360, 360, 361, 361, 362, 362, 363, 363, 363, 364, 364, 365, 366, 366, 367, 367, 367, 368, 368, 369, 369, 370, 370, 371, 371, 371, 372, 372, 372, 373, 373, 373, 374, 374, 374, 375, 375, 375, 376, 376, 376, 377, 377, 377, 378, 378, 378, 379, 379, 380, 381, 382, 382, 383, 383, 383, 384, 384, 384, 385, 385, 385, 386, 386, 387, 387, 387, 388, 388, 389, 389, 389, 390, 390, 391, 391, 392, 392, 392, 393, 393, 393, 394, 394, 394, 395, 395, 395, 396, 396, 396, 397, 397, 397, 398, 398, 399, 399, 400, 400, 401, 401, 402, 402, 403, 403, 404, 405, 406, 406, 406, 407, 407, 407, 408, 408, 408, 409, 409, 410, 410, 410, 411, 411, 411, 412, 412, 412, 413, 413, 413, 414, 414, 414, 415, 415, 415, 416, 416, 417, 417, 418, 418, 419, 419, 419, 420, 420, 420, 421, 421, 421, 422, 422, 422, 423, 423, 423, 424, 424, 425, 425, 425, 426, 426, 426, 427, 427, 427, 428, 428, 428, 429, 429, 429, 430, 430, 430, 431, 431, 431, 432, 432, 433, 433, 434, 434, 435, 435, 435, 436, 436, 437, 437, 438, 438, 439, 439, 440, 440, 441, 441, 441, 442, 442, 442, 443, 443, 443, 444, 444, 444, 445, 445, 445, 446, 446, 446, 447, 447, 447, 448, 448, 448, 449, 449, 450, 450, 450, 451, 451, 451, 452, 452, 452, 453, 453, 453, 454, 454, 454, 455, 455, 455, 456, 456, 457, 457, 457, 458, 458, 458, 459, 459, 459, 460, 460, 460, 461, 461, 461, 462, 462, 462, 463, 463, 463, 464, 464, 465, 465, 465, 466, 466, 466, 467, 467, 467, 468, 468, 468, 469, 469, 469, 470, 470, 470, 471, 471, 472, 472, 473, 473, 473, 474, 474, 475, 475, 476, 476, 477, 477, 477, 478, 478, 478, 479, 479, 480, 480, 481, 481, 481, 482, 482, 482, 483, 483, 483, 484, 484, 484, 485, 485, 486, 486, 487, 487, 487, 488, 488, 489, 490, 490, 490, 491, 491, 491, 492, 492, 492, 493, 493, 493, 494, 494, 494, 495, 495, 495, 496, 496, 496, 497, 497, 497, 498, 498, 498, 499, 499, 499, 500, 500, 500, 501, 501, 501, 502, 502, 502, 503, 503, 504, 504, 505, 505, 505, 506, 506, 506, 507, 507, 507, 508, 508, 508, 509, 509, 509, 510, 510, 510, 511, 511, 512, 512, 513, 513, 514, 514, 514, 515, 515, 516, 516, 517, 517, 517, 518, 518, 518, 519, 519, 520, 520, 521, 521, 521, 522, 522, 522, 523, 523, 523, 524, 524, 524, 525, 525, 526, 526, 527, 527, 528, 528, 528, 529, 529, 529, 530, 530, 531, 531, 532, 532, 532, 533, 533, 534, 534, 534, 535, 535, 535, 536, 536, 536, 537, 537, 538, 538, 538, 539, 539, 540, 541, 541, 542, 542, 542, 543, 543, 543, 544, 544, 544, 545, 545, 545, 546, 546, 546, 547, 547, 548, 548, 548, 549, 549, 549, 550, 550, 550, 551, 551, 551, 552, 552, 552, 553, 553, 553, 554, 554, 554, 555, 555, 555, 556, 556, 556, 557, 557, 557, 558, 558, 558, 559, 559, 560, 560, 561, 561, 561, 562, 562, 562, 563, 563, 563, 564, 564, 564, 565, 565, 565, 566, 566, 566, 567, 567, 568, 568, 569, 569, 570, 570, 571, 571, 572, 572, 573, 574, 574, 574, 575, 575, 575, 576, 576, 576, 577, 578, 578, 579, 579, 579, 580, 580, 580, 581, 581, 581, 582, 582, 583, 583, 584, 584, 585, 585, 585, 586, 586, 587, 588, 588, 589, 589, 589, 590, 590, 590, 591, 591, 591, 592, 592, 592, 593, 593, 593, 594, 594, 594, 595, 595, 595, 596, 596, 596, 597, 597, 597, 598, 598, 598, 599, 599, 600, 600, 601, 601, 601, 602, 602, 602, 603, 603, 603, 604, 604, 604, 605, 605, 606, 606, 607, 607, 607, 608, 608, 608, 609, 609, 609, 610, 610, 610, 611, 611, 611, 612, 612, 612, 613, 613, 613, 614, 614, 614, 615, 615, 615, 616, 616, 616, 617, 617, 617, 618, 618, 618, 619, 619, 619, 620, 620, 620, 621, 621, 621, 622, 623, 623, 624, 624, 624, 625, 626, 626, 627, 627, 627, 628, 628, 629, 629, 629, 630, 630, 630, 631, 631, 632, 632, 633, 633, 634, 635, 635, 636, 636, 636, 637, 637, 637, 638, 638, 638, 639, 639, 640, 640, 641, 641, 641, 642, 642, 642, 643, 643, 643, 644, 644, 644, 645, 645, 646, 646, 647, 647, 647, 648, 648, 648, 649, 649, 649, 650, 650, 650, 651, 651, 651, 652, 652, 652, 653, 653, 653, 654, 654, 654, 655, 655, 655, 656, 656, 656, 657, 657, 657, 658, 658, 658, 659, 659, 660, 661, 661, 661, 662, 662, 663, 663, 663, 664, 664, 664, 665, 665, 666, 666, 667, 667, 668, 668, 669, 669, 670, 670, 671, 671, 671, 672, 672, 672, 673, 673, 673, 674, 674, 674, 675, 675, 675, 676, 676, 676, 677, 677, 677, 678, 678, 678, 679, 679, 680, 680, 681, 681, 681, 682, 682, 682, 683, 683, 683, 684, 684, 685, 685, 686, 686, 686, 687, 687, 687, 688, 688, 688, 689, 689, 689, 690, 690, 690, 691, 691, 692, 692, 692, 693, 693, 693, 694, 694, 694, 695, 695, 696, 696, 696, 697, 697, 698, 698, 699, 699, 699, 700, 700, 701, 701, 702, 703, 703, 703, 704, 704, 704, 705, 705, 706, 706, 707, 707, 708, 708, 708, 709, 709, 709, 710, 710, 710, 711, 711, 711, 712, 712, 713, 714, 714, 715, 715, 715, 716, 716, 716, 717, 717, 717, 718, 718, 718, 719, 719, 720, 720, 721, 721, 721, 722, 722, 722, 723, 723, 724, 724, 725, 725, 725, 726, 726, 726, 727, 727, 727, 728, 728, 728, 729, 729, 729, 730, 730, 730, 731, 731, 732, 732, 732, 733, 733, 733, 734, 734, 734, 735, 735, 736, 736, 736, 737, 737, 737, 738, 738, 738, 739, 739, 739, 740, 740, 741, 741, 742, 742, 742, 743, 743, 743, 744, 744, 745, 746, 746, 747, 748, 748, 748, 749, 749, 749, 750, 750, 750, 751, 751, 751, 752, 752, 753, 753, 753, 754, 754, 754, 755, 755, 755, 756, 756, 756, 757, 757, 757, 758, 758, 758, 759, 759, 760, 761, 762, 762, 762, 763, 764, 765, 766, 766, 766, 767, 767, 768, 768, 769, 770, 770, 770, 771, 771, 772, 772, 772, 773, 774, 774, 775, 776, 777, 778, 778, 778, 779, 779, 780, 780, 780, 781, 781, 782, 782, 783, 784, 784, 784, 785, 785, 786, 786, 786, 787, 787, 788, 788, 788, 789, 789, 790, 790, 790, 791, 791, 792, 792, 793, 793, 794, 794, 794, 795, 796, 796, 797, 798];
Edge_End = [2, 40, 1, 3, 2, 4, 3, 5, 4, 44, 7, 6, 8, 46, 7, 9, 8, 10, 48, 9, 11, 10, 12, 50, 11, 13, 12, 52, 15, 14, 16, 54, 15, 17, 16, 18, 56, 17, 19, 18, 58, 21, 20, 22, 60, 21, 23, 22, 24, 23, 25, 24, 26, 64, 25, 28, 66, 27, 29, 28, 30, 68, 29, 31, 30, 32, 70, 31, 33, 32, 34, 72, 33, 35, 34, 36, 74, 35, 38, 76, 37, 39, 38, 1, 41, 40, 42, 81, 41, 43, 42, 83, 5, 45, 44, 46, 85, 7, 45, 47, 46, 48, 87, 9, 47, 49, 48, 50, 89, 11, 49, 51, 50, 52, 91, 13, 51, 53, 52, 54, 93, 15, 53, 55, 54, 56, 95, 17, 55, 57, 56, 58, 97, 19, 57, 59, 58, 60, 99, 21, 59, 61, 60, 62, 101, 61, 63, 62, 64, 25, 63, 65, 64, 66, 105, 27, 65, 67, 66, 68, 107, 29, 67, 70, 109, 31, 69, 71, 70, 72, 111, 33, 71, 73, 72, 113, 35, 75, 74, 76, 115, 37, 75, 77, 76, 78, 117, 77, 79, 78, 119, 120, 41, 82, 81, 83, 122, 43, 82, 84, 83, 124, 45, 126, 47, 89, 128, 49, 88, 90, 89, 91, 51, 90, 92, 91, 93, 132, 53, 92, 94, 93, 95, 134, 55, 94, 96, 95, 97, 136, 57, 96, 98, 97, 99, 59, 98, 100, 99, 101, 140, 61, 100, 102, 101, 142, 104, 103, 105, 144, 65, 104, 106, 105, 107, 146, 67, 106, 108, 107, 109, 148, 69, 108, 110, 109, 111, 150, 71, 110, 112, 111, 152, 73, 114, 113, 115, 154, 75, 114, 116, 115, 156, 77, 119, 158, 79, 118, 80, 121, 120, 122, 161, 82, 121, 123, 122, 163, 84, 125, 124, 126, 165, 86, 125, 127, 126, 128, 167, 88, 127, 129, 128, 130, 169, 129, 131, 130, 132, 171, 92, 131, 133, 132, 94, 136, 175, 96, 135, 137, 136, 177, 139, 138, 140, 179, 100, 139, 141, 140, 181, 102, 143, 142, 144, 183, 104, 143, 145, 144, 185, 106, 147, 146, 187, 108, 149, 148, 189, 110, 151, 150, 152, 191, 112, 151, 153, 152, 154, 114, 153, 155, 154, 195, 116, 157, 156, 158, 197, 118, 157, 159, 158, 199, 161, 200, 121, 160, 162, 161, 163, 123, 162, 164, 163, 165, 125, 164, 166, 165, 127, 168, 167, 129, 170, 169, 171, 210, 131, 170, 172, 171, 173, 212, 172, 174, 173, 175, 135, 174, 177, 216, 137, 176, 178, 177, 179, 218, 139, 178, 180, 179, 181, 220, 141, 180, 182, 181, 143, 184, 183, 224, 145, 186, 185, 187, 226, 147, 186, 188, 187, 189, 228, 149, 188, 190, 189, 230, 151, 192, 191, 193, 232, 192, 194, 193, 195, 234, 155, 194, 196, 195, 197, 236, 157, 196, 198, 197, 199, 238, 159, 198, 160, 201, 200, 202, 241, 201, 203, 202, 204, 203, 206, 245, 205, 207, 206, 208, 207, 249, 170, 211, 210, 212, 251, 172, 211, 213, 212, 214, 253, 213, 215, 214, 216, 255, 176, 215, 218, 178, 217, 219, 218, 220, 259, 180, 219, 221, 220, 222, 221, 223, 222, 224, 263, 184, 223, 225, 224, 265, 186, 227, 226, 228, 267, 188, 227, 230, 269, 190, 229, 231, 230, 232, 271, 192, 231, 233, 232, 234, 273, 194, 233, 275, 196, 237, 236, 238, 277, 198, 237, 239, 238, 279, 241, 280, 201, 240, 242, 241, 243, 282, 242, 244, 243, 245, 284, 205, 244, 246, 245, 286, 248, 247, 249, 288, 209, 248, 251, 290, 211, 250, 252, 251, 292, 213, 254, 253, 255, 294, 215, 254, 256, 255, 257, 296, 256, 258, 257, 259, 298, 219, 258, 260, 259, 261, 260, 262, 261, 302, 223, 264, 263, 304, 225, 266, 265, 267, 306, 227, 266, 268, 267, 269, 308, 229, 268, 271, 231, 270, 272, 271, 273, 312, 233, 272, 274, 273, 275, 314, 235, 274, 277, 316, 237, 276, 278, 277, 318, 239, 240, 281, 280, 282, 242, 281, 283, 282, 284, 323, 244, 283, 285, 284, 286, 325, 246, 285, 287, 286, 288, 248, 287, 289, 288, 290, 329, 250, 289, 291, 290, 292, 331, 252, 291, 293, 292, 294, 254, 293, 295, 294, 296, 256, 295, 298, 337, 258, 297, 299, 298, 339, 301, 300, 302, 341, 262, 301, 304, 343, 264, 303, 305, 304, 306, 266, 305, 307, 306, 308, 347, 268, 307, 310, 309, 311, 310, 351, 272, 313, 312, 314, 353, 274, 313, 315, 314, 355, 276, 317, 316, 318, 357, 278, 317, 319, 318, 359, 321, 360, 320, 322, 321, 323, 362, 283, 322, 324, 323, 325, 364, 285, 324, 326, 325, 327, 326, 328, 327, 289, 330, 329, 331, 291, 330, 332, 331, 333, 372, 332, 334, 333, 335, 374, 334, 336, 335, 337, 376, 297, 336, 338, 337, 378, 299, 341, 380, 301, 340, 342, 341, 343, 382, 303, 342, 345, 384, 344, 346, 345, 347, 307, 346, 348, 347, 349, 348, 350, 349, 351, 390, 311, 350, 352, 351, 353, 392, 313, 352, 354, 353, 355, 394, 315, 354, 356, 355, 357, 396, 317, 356, 358, 357, 359, 319, 358, 320, 361, 360, 401, 322, 363, 362, 364, 403, 324, 363, 366, 365, 367, 366, 368, 407, 367, 369, 368, 370, 369, 371, 370, 372, 411, 332, 371, 373, 372, 374, 413, 334, 373, 375, 374, 376, 415, 336, 375, 377, 376, 378, 417, 338, 377, 379, 378, 419, 340, 421, 342, 383, 382, 384, 423, 344, 383, 385, 384, 386, 425, 385, 387, 386, 388, 427, 387, 389, 388, 390, 429, 350, 389, 392, 431, 352, 391, 393, 392, 394, 433, 354, 393, 395, 394, 396, 435, 356, 395, 397, 396, 398, 437, 397, 399, 398, 439, 401, 440, 361, 400, 403, 442, 363, 402, 444, 406, 405, 407, 446, 367, 406, 408, 407, 409, 448, 408, 410, 409, 411, 450, 371, 410, 412, 411, 413, 452, 373, 412, 414, 413, 415, 454, 375, 414, 416, 415, 417, 377, 416, 419, 458, 379, 418, 420, 419, 421, 460, 381, 420, 422, 421, 423, 462, 383, 422, 424, 423, 425, 385, 424, 426, 425, 427, 466, 387, 426, 428, 427, 429, 468, 389, 428, 430, 429, 431, 470, 391, 430, 432, 431, 433, 393, 432, 435, 474, 395, 434, 436, 435, 437, 397, 436, 439, 478, 399, 438, 400, 441, 440, 442, 481, 402, 441, 443, 442, 444, 483, 404, 443, 445, 444, 446, 485, 406, 445, 447, 446, 448, 487, 408, 447, 449, 448, 450, 410, 449, 451, 450, 452, 491, 412, 451, 453, 452, 454, 493, 414, 453, 455, 454, 456, 495, 455, 457, 456, 458, 497, 418, 457, 459, 458, 460, 499, 420, 459, 461, 460, 462, 501, 422, 461, 463, 462, 464, 503, 463, 465, 464, 466, 505, 426, 465, 467, 466, 468, 507, 428, 467, 469, 468, 470, 509, 430, 469, 471, 470, 472, 471, 473, 472, 474, 513, 434, 473, 476, 515, 475, 477, 476, 478, 517, 438, 477, 479, 478, 519, 481, 520, 441, 480, 482, 481, 483, 522, 443, 482, 484, 483, 485, 524, 445, 484, 487, 526, 447, 486, 488, 487, 528, 490, 489, 491, 530, 451, 490, 492, 491, 493, 532, 453, 492, 494, 493, 495, 534, 455, 494, 496, 495, 497, 536, 457, 496, 498, 497, 499, 538, 459, 498, 500, 499, 501, 540, 461, 500, 502, 501, 503, 542, 463, 502, 505, 544, 465, 504, 506, 505, 507, 546, 467, 506, 508, 507, 509, 548, 469, 508, 510, 509, 511, 550, 510, 512, 511, 552, 473, 514, 513, 515, 554, 475, 514, 517, 556, 477, 516, 518, 517, 519, 558, 479, 518, 480, 521, 520, 522, 561, 482, 521, 523, 522, 524, 563, 484, 523, 525, 524, 565, 486, 527, 526, 528, 488, 527, 529, 528, 530, 569, 490, 529, 532, 571, 492, 531, 533, 532, 534, 494, 533, 535, 534, 536, 575, 496, 535, 537, 536, 538, 498, 537, 539, 538, 579, 500, 542, 581, 502, 541, 543, 542, 544, 583, 504, 543, 545, 544, 546, 585, 506, 545, 547, 546, 548, 508, 547, 549, 548, 550, 589, 510, 549, 551, 550, 552, 591, 512, 551, 553, 552, 554, 593, 514, 553, 555, 554, 556, 595, 516, 555, 557, 556, 558, 597, 518, 557, 559, 558, 599, 561, 600, 521, 560, 562, 561, 563, 602, 523, 562, 564, 563, 565, 604, 525, 564, 566, 565, 567, 606, 566, 568, 567, 608, 529, 570, 569, 610, 531, 572, 571, 612, 574, 573, 575, 614, 535, 574, 576, 575, 577, 616, 576, 579, 618, 539, 578, 580, 579, 581, 620, 541, 580, 582, 581, 583, 543, 582, 585, 624, 545, 584, 586, 585, 626, 588, 587, 589, 549, 588, 590, 589, 591, 630, 551, 590, 592, 591, 593, 632, 553, 592, 594, 593, 595, 634, 555, 594, 596, 595, 597, 636, 557, 596, 598, 597, 599, 638, 559, 598, 560, 601, 600, 602, 641, 562, 601, 603, 602, 604, 643, 564, 603, 605, 604, 645, 566, 607, 606, 608, 647, 568, 607, 609, 608, 610, 649, 570, 609, 611, 610, 612, 651, 572, 611, 613, 612, 614, 653, 574, 613, 615, 614, 616, 655, 576, 615, 617, 616, 618, 657, 578, 617, 619, 618, 620, 659, 580, 619, 621, 620, 622, 661, 621, 624, 663, 584, 623, 625, 624, 586, 627, 626, 628, 667, 627, 629, 628, 630, 669, 590, 629, 631, 630, 671, 592, 633, 632, 673, 594, 636, 675, 596, 635, 637, 636, 638, 677, 598, 637, 639, 638, 679, 641, 680, 601, 640, 642, 641, 643, 682, 603, 642, 644, 643, 645, 684, 605, 644, 647, 686, 607, 646, 648, 647, 649, 688, 609, 648, 650, 649, 651, 690, 611, 650, 652, 651, 653, 692, 613, 652, 654, 653, 655, 694, 615, 654, 656, 655, 657, 696, 617, 656, 658, 657, 659, 698, 619, 658, 661, 621, 660, 662, 661, 663, 623, 662, 664, 663, 665, 704, 664, 666, 665, 667, 627, 666, 669, 708, 629, 668, 671, 710, 631, 670, 672, 671, 673, 712, 633, 672, 674, 673, 675, 714, 635, 674, 676, 675, 677, 716, 637, 676, 678, 677, 679, 718, 639, 678, 640, 681, 680, 682, 721, 642, 681, 683, 682, 684, 723, 644, 683, 686, 725, 646, 685, 687, 686, 688, 727, 648, 687, 689, 688, 690, 729, 650, 689, 691, 690, 692, 652, 691, 693, 692, 694, 733, 654, 693, 695, 694, 696, 656, 695, 697, 696, 737, 658, 699, 698, 700, 739, 699, 701, 700, 741, 703, 702, 704, 743, 664, 703, 705, 704, 706, 705, 707, 706, 708, 668, 707, 709, 708, 710, 749, 670, 709, 711, 710, 712, 751, 672, 711, 753, 674, 715, 714, 716, 755, 676, 715, 717, 716, 718, 757, 678, 717, 719, 718, 759, 721, 760, 681, 720, 722, 721, 723, 762, 683, 722, 725, 764, 685, 724, 726, 725, 727, 766, 687, 726, 728, 727, 729, 768, 689, 728, 730, 729, 731, 770, 730, 732, 731, 733, 772, 693, 732, 734, 733, 735, 774, 734, 736, 735, 737, 776, 697, 736, 738, 737, 739, 778, 699, 738, 740, 739, 780, 701, 742, 741, 743, 782, 703, 742, 744, 743, 784, 746, 745, 786, 748, 747, 749, 788, 709, 748, 750, 749, 751, 790, 711, 750, 752, 751, 753, 713, 752, 754, 753, 755, 794, 715, 754, 756, 755, 757, 796, 717, 756, 758, 757, 759, 798, 719, 758, 720, 762, 722, 761, 763, 762, 724, 766, 726, 765, 767, 766, 768, 728, 767, 770, 730, 769, 771, 770, 772, 732, 771, 773, 772, 734, 775, 774, 736, 778, 738, 777, 779, 778, 780, 740, 779, 781, 780, 782, 742, 781, 784, 744, 783, 785, 784, 786, 746, 785, 787, 786, 788, 748, 787, 789, 788, 790, 750, 789, 791, 790, 792, 791, 793, 792, 794, 754, 793, 795, 794, 756, 797, 796, 758];
L = [1, 1, 1, 1, 1, 1, 1, 1, 1, 1, 1, 1, 1, 1, 1, 1, 1, 1, 1, 1, 1, 1, 1, 1, 1, 1, 1, 1, 1, 1, 1, 1, 1, 1, 1, 1, 1, 1, 1, 1, 1, 1, 1, 1, 1, 1, 1, 1, 1, 1, 1, 1, 1, 1, 1, 1, 1, 1, 1, 1, 1, 1, 1, 1, 1, 1, 1, 1, 1, 1, 1, 1, 1, 1, 1, 1, 1, 1, 1, 1, 1, 1, 1, 1, 1, 1, 1, 1, 1, 1, 1, 1, 1, 1, 1, 1, 1, 1, 1, 1, 1, 1, 1, 1, 1, 1, 1, 1, 1, 1, 1, 1, 1, 1, 1, 1, 1, 1, 1, 1, 1, 1, 1, 1, 1, 1, 1, 1, 1, 1, 1, 1, 1, 1, 1, 1, 1, 1, 1, 1, 1, 1, 1, 1, 1, 1, 1, 1, 1, 1, 1, 1, 1, 1, 1, 1, 1, 1, 1, 1, 1, 1, 1, 1, 1, 1, 1, 1, 1, 1, 1, 1, 1, 1, 1, 1, 1, 1, 1, 1, 1, 1, 1, 1, 1, 1, 1, 1, 1, 1, 1, 1, 1, 1, 1, 1, 1, 1, 1, 1, 1, 1, 1, 1, 1, 1, 1, 1, 1, 1, 1, 1, 1, 1, 1, 1, 1, 1, 1, 1, 1, 1, 1, 1, 1, 1, 1, 1, 1, 1, 1, 1, 1, 1, 1, 1, 1, 1, 1, 1, 1, 1, 1, 1, 1, 1, 1, 1, 1, 1, 1, 1, 1, 1, 1, 1, 1, 1, 1, 1, 1, 1, 1, 1, 1, 1, 1, 1, 1, 1, 1, 1, 1, 1, 1, 1, 1, 1, 1, 1, 1, 1, 1, 1, 1, 1, 1, 1, 1, 1, 1, 1, 1, 1, 1, 1, 1, 1, 1, 1, 1, 1, 1, 1, 1, 1, 1, 1, 1, 1, 1, 1, 1, 1, 1, 1, 1, 1, 1, 1, 1, 1, 1, 1, 1, 1, 1, 1, 1, 1, 1, 1, 1, 1, 1, 1, 1, 1, 1, 1, 1, 1, 1, 1, 1, 1, 1, 1, 1, 1, 1, 1, 1, 1, 1, 1, 1, 1, 1, 1, 1, 1, 1, 1, 1, 1, 1, 1, 1, 1, 1, 1, 1, 1, 1, 1, 1, 1, 1, 1, 1, 1, 1, 1, 1, 1, 1, 1, 1, 1, 1, 1, 1, 1, 1, 1, 1, 1, 1, 1, 1, 1, 1, 1, 1, 1, 1, 1, 1, 1, 1, 1, 1, 1, 1, 1, 1, 1, 1, 1, 1, 1, 1, 1, 1, 1, 1, 1, 1, 1, 1, 1, 1, 1, 1, 1, 1, 1, 1, 1, 1, 1, 1, 1, 1, 1, 1, 1, 1, 1, 1, 1, 1, 1, 1, 1, 1, 1, 1, 1, 1, 1, 1, 1, 1, 1, 1, 1, 1, 1, 1, 1, 1, 1, 1, 1, 1, 1, 1, 1, 1, 1, 1, 1, 1, 1, 1, 1, 1, 1, 1, 1, 1, 1, 1, 1, 1, 1, 1, 1, 1, 1, 1, 1, 1, 1, 1, 1, 1, 1, 1, 1, 1, 1, 1, 1, 1, 1, 1, 1, 1, 1, 1, 1, 1, 1, 1, 1, 1, 1, 1, 1, 1, 1, 1, 1, 1, 1, 1, 1, 1, 1, 1, 1, 1, 1, 1, 1, 1, 1, 1, 1, 1, 1, 1, 1, 1, 1, 1, 1, 1, 1, 1, 1, 1, 1, 1, 1, 1, 1, 1, 1, 1, 1, 1, 1, 1, 1, 1, 1, 1, 1, 1, 1, 1, 1, 1, 1, 1, 1, 1, 1, 1, 1, 1, 1, 1, 1, 1, 1, 1, 1, 1, 1, 1, 1, 1, 1, 1, 1, 1, 1, 1, 1, 1, 1, 1, 1, 1, 1, 1, 1, 1, 1, 1, 1, 1, 1, 1, 1, 1, 1, 1, 1, 1, 1, 1, 1, 1, 1, 1, 1, 1, 1, 1, 1, 1, 1, 1, 1, 1, 1, 1, 1, 1, 1, 1, 1, 1, 1, 1, 1, 1, 1, 1, 1, 1, 1, 1, 1, 1, 1, 1, 1, 1, 1, 1, 1, 1, 1, 1, 1, 1, 1, 1, 1, 1, 1, 1, 1, 1, 1, 1, 1, 1, 1, 1, 1, 1, 1, 1, 1, 1, 1, 1, 1, 1, 1, 1, 1, 1, 1, 1, 1, 1, 1, 1, 1, 1, 1, 1, 1, 1, 1, 1, 1, 1, 1, 1, 1, 1, 1, 1, 1, 1, 1, 1, 1, 1, 1, 1, 1, 1, 1, 1, 1, 1, 1, 1, 1, 1, 1, 1, 1, 1, 1, 1, 1, 1, 1, 1, 1, 1, 1, 1, 1, 1, 1, 1, 1, 1, 1, 1, 1, 1, 1, 1, 1, 1, 1, 1, 1, 1, 1, 1, 1, 1, 1, 1, 1, 1, 1, 1, 1, 1, 1, 1, 1, 1, 1, 1, 1, 1, 1, 1, 1, 1, 1, 1, 1, 1, 1, 1, 1, 1, 1, 1, 1, 1, 1, 1, 1, 1, 1, 1, 1, 1, 1, 1, 1, 1, 1, 1, 1, 1, 1, 1, 1, 1, 1, 1, 1, 1, 1, 1, 1, 1, 1, 1, 1, 1, 1, 1, 1, 1, 1, 1, 1, 1, 1, 1, 1, 1, 1, 1, 1, 1, 1, 1, 1, 1, 1, 1, 1, 1, 1, 1, 1, 1, 1, 1, 1, 1, 1, 1, 1, 1, 1, 1, 1, 1, 1, 1, 1, 1, 1, 1, 1, 1, 1, 1, 1, 1, 1, 1, 1, 1, 1, 1, 1, 1, 1, 1, 1, 1, 1, 1, 1, 1, 1, 1, 1, 1, 1, 1, 1, 1, 1, 1, 1, 1, 1, 1, 1, 1, 1, 1, 1, 1, 1, 1, 1, 1, 1, 1, 1, 1, 1, 1, 1, 1, 1, 1, 1, 1, 1, 1, 1, 1, 1, 1, 1, 1, 1, 1, 1, 1, 1, 1, 1, 1, 1, 1, 1, 1, 1, 1, 1, 1, 1, 1, 1, 1, 1, 1, 1, 1, 1, 1, 1, 1, 1, 1, 1, 1, 1, 1, 1, 1, 1, 1, 1, 1, 1, 1, 1, 1, 1, 1, 1, 1, 1, 1, 1, 1, 1, 1, 1, 1, 1, 1, 1, 1, 1, 1, 1, 1, 1, 1, 1, 1, 1, 1, 1, 1, 1, 1, 1, 1, 1, 1, 1, 1, 1, 1, 1, 1, 1, 1, 1, 1, 1, 1, 1, 1, 1, 1, 1, 1, 1, 1, 1, 1, 1, 1, 1, 1, 1, 1, 1, 1, 1, 1, 1, 1, 1, 1, 1, 1, 1, 1, 1, 1, 1, 1, 1, 1, 1, 1, 1, 1, 1, 1, 1, 1, 1, 1, 1, 1, 1, 1, 1, 1, 1, 1, 1, 1, 1, 1, 1, 1, 1, 1, 1, 1, 1, 1, 1, 1, 1, 1, 1, 1, 1, 1, 1, 1, 1, 1, 1, 1, 1, 1, 1, 1, 1, 1, 1, 1, 1, 1, 1, 1, 1, 1, 1, 1, 1, 1, 1, 1, 1, 1, 1, 1, 1, 1, 1, 1, 1, 1, 1, 1, 1, 1, 1, 1, 1, 1, 1, 1, 1, 1, 1, 1, 1, 1, 1, 1, 1, 1, 1, 1, 1, 1, 1, 1, 1, 1, 1, 1, 1, 1, 1, 1, 1, 1, 1, 1, 1, 1, 1, 1, 1, 1, 1, 1, 1, 1, 1, 1, 1, 1, 1, 1, 1, 1, 1, 1, 1, 1, 1, 1, 1, 1, 1, 1, 1, 1, 1, 1, 1, 1, 1, 1, 1, 1, 1, 1, 1, 1, 1, 1, 1, 1, 1, 1, 1, 1, 1, 1, 1, 1, 1, 1, 1, 1, 1, 1, 1, 1, 1, 1, 1, 1, 1, 1, 1, 1, 1, 1, 1, 1, 1, 1, 1, 1, 1, 1, 1, 1, 1, 1, 1, 1, 1, 1, 1, 1, 1, 1, 1, 1, 1, 1, 1, 1, 1, 1, 1, 1, 1, 1, 1, 1, 1, 1, 1, 1, 1, 1, 1, 1, 1, 1, 1, 1, 1, 1, 1, 1, 1, 1, 1, 1, 1, 1, 1, 1, 1, 1, 1, 1, 1, 1, 1, 1, 1, 1, 1, 1, 1, 1, 1, 1, 1, 1, 1, 1, 1, 1, 1, 1, 1, 1, 1, 1, 1, 1, 1, 1, 1, 1, 1, 1, 1, 1, 1, 1, 1, 1, 1, 1, 1, 1, 1, 1, 1, 1, 1, 1, 1, 1, 1, 1, 1, 1, 1, 1, 1, 1, 1, 1, 1, 1, 1, 1, 1, 1, 1, 1, 1, 1, 1, 1, 1, 1, 1, 1, 1, 1, 1, 1, 1, 1, 1, 1, 1, 1, 1, 1, 1, 1, 1, 1, 1, 1, 1, 1, 1, 1, 1, 1, 1, 1, 1, 1, 1, 1, 1, 1, 1, 1, 1, 1, 1, 1, 1, 1, 1, 1, 1, 1, 1, 1, 1, 1, 1, 1, 1, 1, 1, 1, 1, 1, 1, 1, 1, 1, 1, 1, 1, 1, 1, 1, 1, 1, 1, 1, 1, 1, 1, 1, 1, 1, 1, 1, 1, 1, 1, 1, 1, 1, 1, 1, 1, 1, 1, 1, 1, 1, 1, 1, 1, 1, 1, 1, 1, 1, 1, 1, 1, 1, 1, 1, 1, 1, 1, 1, 1, 1, 1, 1, 1, 1, 1, 1, 1, 1, 1, 1, 1, 1, 1, 1, 1, 1, 1, 1, 1, 1, 1, 1, 1, 1, 1, 1, 1, 1, 1, 1, 1, 1, 1, 1, 1, 1, 1, 1, 1, 1, 1, 1, 1, 1, 1, 1, 1, 1, 1, 1, 1, 1, 1, 1, 1, 1, 1, 1, 1, 1, 1, 1, 1, 1, 1, 1, 1, 1, 1, 1, 1, 1, 1, 1, 1, 1, 1, 1, 1, 1, 1, 1, 1, 1, 1, 1, 1, 1, 1, 1, 1, 1, 1, 1, 1, 1, 1, 1, 1, 1, 1, 1, 1, 1, 1, 1, 1, 1, 1, 1, 1, 1, 1, 1, 1, 1, 1, 1, 1, 1, 1, 1, 1, 1, 1, 1, 1, 1, 1, 1, 1, 1, 1, 1, 1, 1, 1, 1, 1, 1, 1, 1, 1, 1, 1, 1, 1, 1, 1, 1, 1, 1, 1, 1, 1, 1, 1, 1, 1, 1, 1, 1, 1, 1, 1, 1, 1, 1, 1, 1, 1, 1, 1, 1, 1, 1, 1, 1, 1, 1, 1, 1, 1, 1, 1, 1, 1, 1, 1, 1, 1, 1, 1, 1, 1, 1, 1, 1, 1, 1, 1, 1, 1, 1, 1, 1, 1, 1, 1, 1, 1, 1, 1, 1, 1, 1, 1, 1, 1, 1, 1, 1, 1, 1, 1, 1, 1, 1, 1, 1, 1, 1, 1, 1, 1, 1, 1, 1, 1, 1, 1, 1, 1, 1, 1, 1, 1, 1, 1, 1, 1, 1, 1, 1, 1, 1, 1, 1, 1, 1, 1, 1, 1, 1, 1, 1, 1, 1, 1, 1, 1, 1, 1, 1, 1, 1, 1, 1, 1, 1, 1, 1, 1, 1, 1, 1, 1, 1, 1, 1, 1, 1, 1, 1, 1, 1, 1, 1, 1, 1, 1, 1, 1, 1, 1, 1, 1, 1, 1, 1, 1, 1, 1, 1, 1, 1, 1, 1, 1, 1, 1, 1, 1, 1, 1, 1, 1, 1, 1, 1, 1, 1, 1, 1, 1, 1, 1, 1, 1, 1, 1, 1, 1, 1, 1, 1, 1, 1, 1, 1, 1, 1, 1, 1, 1, 1, 1, 1, 1, 1, 1, 1, 1, 1, 1, 1, 1, 1, 1, 1, 1, 1, 1, 1, 1, 1, 1, 1, 1, 1, 1, 1, 1, 1, 1, 1, 1, 1, 1, 1, 1, 1, 1, 1, 1, 1, 1, 1, 1, 1, 1, 1, 1, 1, 1, 1, 1, 1, 1, 1, 1, 1, 1, 1, 1, 1, 1, 1, 1, 1, 1, 1, 1, 1, 1, 1, 1, 1, 1, 1, 1, 1, 1, 1, 1, 1, 1, 1, 1, 1, 1, 1, 1, 1, 1, 1, 1, 1, 1, 1, 1, 1, 1, 1, 1];
T = [1, 1, 1, 1, 1, 1, 1, 1, 1, 1, 1, 1, 1, 1, 1, 1, 1, 1, 1, 1, 1, 1, 1, 1, 1, 1, 1, 1, 1, 1, 1, 1, 1, 1, 1, 1, 1, 1, 1, 1, 1, 1, 1, 1, 1, 1, 1, 1, 1, 1, 1, 1, 1, 1, 1, 1, 1, 1, 1, 1, 1, 1, 1, 1, 1, 1, 1, 1, 1, 1, 1, 1, 1, 1, 1, 1, 1, 1, 1, 1, 1, 1, 1, 1, 1, 1, 1, 1, 1, 1, 1, 1, 1, 1, 1, 1, 1, 1, 1, 1, 1, 1, 1, 1, 1, 1, 1, 1, 1, 1, 1, 1, 1, 1, 1, 1, 1, 1, 1, 1, 1, 1, 1, 1, 1, 1, 1, 1, 1, 1, 1, 1, 1, 1, 1, 1, 1, 1, 1, 1, 1, 1, 1, 1, 1, 1, 1, 1, 1, 1, 1, 1, 1, 1, 1, 1, 1, 1, 1, 1, 1, 1, 1, 1, 1, 1, 1, 1, 1, 1, 1, 1, 1, 1, 1, 1, 1, 1, 1, 1, 1, 1, 1, 1, 1, 1, 1, 1, 1, 1, 1, 1, 1, 1, 1, 1, 1, 1, 1, 1, 1, 1, 1, 1, 1, 1, 1, 1, 1, 1, 1, 1, 1, 1, 1, 1, 1, 1, 1, 1, 1, 1, 1, 1, 1, 1, 1, 1, 1, 1, 1, 1, 1, 1, 1, 1, 1, 1, 1, 1, 1, 1, 1, 1, 1, 1, 1, 1, 1, 1, 1, 1, 1, 1, 1, 1, 1, 1, 1, 1, 1, 1, 1, 1, 1, 1, 1, 1, 1, 1, 1, 1, 1, 1, 1, 1, 1, 1, 1, 1, 1, 1, 1, 1, 1, 1, 1, 1, 1, 1, 1, 1, 1, 1, 1, 1, 1, 1, 1, 1, 1, 1, 1, 1, 1, 1, 1, 1, 1, 1, 1, 1, 1, 1, 1, 1, 1, 1, 1, 1, 1, 1, 1, 1, 1, 1, 1, 1, 1, 1, 1, 1, 1, 1, 1, 1, 1, 1, 1, 1, 1, 1, 1, 1, 1, 1, 1, 1, 1, 1, 1, 1, 1, 1, 1, 1, 1, 1, 1, 1, 1, 1, 1, 1, 1, 1, 1, 1, 1, 1, 1, 1, 1, 1, 1, 1, 1, 1, 1, 1, 1, 1, 1, 1, 1, 1, 1, 1, 1, 1, 1, 1, 1, 1, 1, 1, 1, 1, 1, 1, 1, 1, 1, 1, 1, 1, 1, 1, 1, 1, 1, 1, 1, 1, 1, 1, 1, 1, 1, 1, 1, 1, 1, 1, 1, 1, 1, 1, 1, 1, 1, 1, 1, 1, 1, 1, 1, 1, 1, 1, 1, 1, 1, 1, 1, 1, 1, 1, 1, 1, 1, 1, 1, 1, 1, 1, 1, 1, 1, 1, 1, 1, 1, 1, 1, 1, 1, 1, 1, 1, 1, 1, 1, 1, 1, 1, 1, 1, 1, 1, 1, 1, 1, 1, 1, 1, 1, 1, 1, 1, 1, 1, 1, 1, 1, 1, 1, 1, 1, 1, 1, 1, 1, 1, 1, 1, 1, 1, 1, 1, 1, 1, 1, 1, 1, 1, 1, 1, 1, 1, 1, 1, 1, 1, 1, 1, 1, 1, 1, 1, 1, 1, 1, 1, 1, 1, 1, 1, 1, 1, 1, 1, 1, 1, 1, 1, 1, 1, 1, 1, 1, 1, 1, 1, 1, 1, 1, 1, 1, 1, 1, 1, 1, 1, 1, 1, 1, 1, 1, 1, 1, 1, 1, 1, 1, 1, 1, 1, 1, 1, 1, 1, 1, 1, 1, 1, 1, 1, 1, 1, 1, 1, 1, 1, 1, 1, 1, 1, 1, 1, 1, 1, 1, 1, 1, 1, 1, 1, 1, 1, 1, 1, 1, 1, 1, 1, 1, 1, 1, 1, 1, 1, 1, 1, 1, 1, 1, 1, 1, 1, 1, 1, 1, 1, 1, 1, 1, 1, 1, 1, 1, 1, 1, 1, 1, 1, 1, 1, 1, 1, 1, 1, 1, 1, 1, 1, 1, 1, 1, 1, 1, 1, 1, 1, 1, 1, 1, 1, 1, 1, 1, 1, 1, 1, 1, 1, 1, 1, 1, 1, 1, 1, 1, 1, 1, 1, 1, 1, 1, 1, 1, 1, 1, 1, 1, 1, 1, 1, 1, 1, 1, 1, 1, 1, 1, 1, 1, 1, 1, 1, 1, 1, 1, 1, 1, 1, 1, 1, 1, 1, 1, 1, 1, 1, 1, 1, 1, 1, 1, 1, 1, 1, 1, 1, 1, 1, 1, 1, 1, 1, 1, 1, 1, 1, 1, 1, 1, 1, 1, 1, 1, 1, 1, 1, 1, 1, 1, 1, 1, 1, 1, 1, 1, 1, 1, 1, 1, 1, 1, 1, 1, 1, 1, 1, 1, 1, 1, 1, 1, 1, 1, 1, 1, 1, 1, 1, 1, 1, 1, 1, 1, 1, 1, 1, 1, 1, 1, 1, 1, 1, 1, 1, 1, 1, 1, 1, 1, 1, 1, 1, 1, 1, 1, 1, 1, 1, 1, 1, 1, 1, 1, 1, 1, 1, 1, 1, 1, 1, 1, 1, 1, 1, 1, 1, 1, 1, 1, 1, 1, 1, 1, 1, 1, 1, 1, 1, 1, 1, 1, 1, 1, 1, 1, 1, 1, 1, 1, 1, 1, 1, 1, 1, 1, 1, 1, 1, 1, 1, 1, 1, 1, 1, 1, 1, 1, 1, 1, 1, 1, 1, 1, 1, 1, 1, 1, 1, 1, 1, 1, 1, 1, 1, 1, 1, 1, 1, 1, 1, 1, 1, 1, 1, 1, 1, 1, 1, 1, 1, 1, 1, 1, 1, 1, 1, 1, 1, 1, 1, 1, 1, 1, 1, 1, 1, 1, 1, 1, 1, 1, 1, 1, 1, 1, 1, 1, 1, 1, 1, 1, 1, 1, 1, 1, 1, 1, 1, 1, 1, 1, 1, 1, 1, 1, 1, 1, 1, 1, 1, 1, 1, 1, 1, 1, 1, 1, 1, 1, 1, 1, 1, 1, 1, 1, 1, 1, 1, 1, 1, 1, 1, 1, 1, 1, 1, 1, 1, 1, 1, 1, 1, 1, 1, 1, 1, 1, 1, 1, 1, 1, 1, 1, 1, 1, 1, 1, 1, 1, 1, 1, 1, 1, 1, 1, 1, 1, 1, 1, 1, 1, 1, 1, 1, 1, 1, 1, 1, 1, 1, 1, 1, 1, 1, 1, 1, 1, 1, 1, 1, 1, 1, 1, 1, 1, 1, 1, 1, 1, 1, 1, 1, 1, 1, 1, 1, 1, 1, 1, 1, 1, 1, 1, 1, 1, 1, 1, 1, 1, 1, 1, 1, 1, 1, 1, 1, 1, 1, 1, 1, 1, 1, 1, 1, 1, 1, 1, 1, 1, 1, 1, 1, 1, 1, 1, 1, 1, 1, 1, 1, 1, 1, 1, 1, 1, 1, 1, 1, 1, 1, 1, 1, 1, 1, 1, 1, 1, 1, 1, 1, 1, 1, 1, 1, 1, 1, 1, 1, 1, 1, 1, 1, 1, 1, 1, 1, 1, 1, 1, 1, 1, 1, 1, 1, 1, 1, 1, 1, 1, 1, 1, 1, 1, 1, 1, 1, 1, 1, 1, 1, 1, 1, 1, 1, 1, 1, 1, 1, 1, 1, 1, 1, 1, 1, 1, 1, 1, 1, 1, 1, 1, 1, 1, 1, 1, 1, 1, 1, 1, 1, 1, 1, 1, 1, 1, 1, 1, 1, 1, 1, 1, 1, 1, 1, 1, 1, 1, 1, 1, 1, 1, 1, 1, 1, 1, 1, 1, 1, 1, 1, 1, 1, 1, 1, 1, 1, 1, 1, 1, 1, 1, 1, 1, 1, 1, 1, 1, 1, 1, 1, 1, 1, 1, 1, 1, 1, 1, 1, 1, 1, 1, 1, 1, 1, 1, 1, 1, 1, 1, 1, 1, 1, 1, 1, 1, 1, 1, 1, 1, 1, 1, 1, 1, 1, 1, 1, 1, 1, 1, 1, 1, 1, 1, 1, 1, 1, 1, 1, 1, 1, 1, 1, 1, 1, 1, 1, 1, 1, 1, 1, 1, 1, 1, 1, 1, 1, 1, 1, 1, 1, 1, 1, 1, 1, 1, 1, 1, 1, 1, 1, 1, 1, 1, 1, 1, 1, 1, 1, 1, 1, 1, 1, 1, 1, 1, 1, 1, 1, 1, 1, 1, 1, 1, 1, 1, 1, 1, 1, 1, 1, 1, 1, 1, 1, 1, 1, 1, 1, 1, 1, 1, 1, 1, 1, 1, 1, 1, 1, 1, 1, 1, 1, 1, 1, 1, 1, 1, 1, 1, 1, 1, 1, 1, 1, 1, 1, 1, 1, 1, 1, 1, 1, 1, 1, 1, 1, 1, 1, 1, 1, 1, 1, 1, 1, 1, 1, 1, 1, 1, 1, 1, 1, 1, 1, 1, 1, 1, 1, 1, 1, 1, 1, 1, 1, 1, 1, 1, 1, 1, 1, 1, 1, 1, 1, 1, 1, 1, 1, 1, 1, 1, 1, 1, 1, 1, 1, 1, 1, 1, 1, 1, 1, 1, 1, 1, 1, 1, 1, 1, 1, 1, 1, 1, 1, 1, 1, 1, 1, 1, 1, 1, 1, 1, 1, 1, 1, 1, 1, 1, 1, 1, 1, 1, 1, 1, 1, 1, 1, 1, 1, 1, 1, 1, 1, 1, 1, 1, 1, 1, 1, 1, 1, 1, 1, 1, 1, 1, 1, 1, 1, 1, 1, 1, 1, 1, 1, 1, 1, 1, 1, 1, 1, 1, 1, 1, 1, 1, 1, 1, 1, 1, 1, 1, 1, 1, 1, 1, 1, 1, 1, 1, 1, 1, 1, 1, 1, 1, 1, 1, 1, 1, 1, 1, 1, 1, 1, 1, 1, 1, 1, 1, 1, 1, 1, 1, 1, 1, 1, 1, 1, 1, 1, 1, 1, 1, 1, 1, 1, 1, 1, 1, 1, 1, 1, 1, 1, 1, 1, 1, 1, 1, 1, 1, 1, 1, 1, 1, 1, 1, 1, 1, 1, 1, 1, 1, 1, 1, 1, 1, 1, 1, 1, 1, 1, 1, 1, 1, 1, 1, 1, 1, 1, 1, 1, 1, 1, 1, 1, 1, 1, 1, 1, 1, 1, 1, 1, 1, 1, 1, 1, 1, 1, 1, 1, 1, 1, 1, 1, 1, 1, 1, 1, 1, 1, 1, 1, 1, 1, 1, 1, 1, 1, 1, 1, 1, 1, 1, 1, 1, 1, 1, 1, 1, 1, 1, 1, 1, 1, 1, 1, 1, 1, 1, 1, 1, 1, 1, 1, 1, 1, 1, 1, 1, 1, 1, 1, 1, 1, 1, 1, 1, 1, 1, 1, 1, 1, 1, 1, 1, 1, 1, 1, 1, 1, 1, 1, 1, 1, 1, 1, 1, 1, 1, 1, 1, 1, 1, 1, 1, 1, 1, 1, 1, 1, 1, 1, 1, 1, 1, 1, 1, 1, 1, 1, 1, 1, 1, 1, 1, 1, 1, 1, 1, 1, 1, 1, 1, 1, 1, 1, 1, 1, 1, 1, 1, 1, 1, 1, 1, 1, 1, 1, 1, 1, 1, 1, 1, 1, 1, 1, 1, 1, 1, 1, 1, 1, 1, 1, 1, 1, 1, 1, 1, 1, 1, 1, 1, 1, 1, 1, 1, 1, 1, 1, 1, 1, 1, 1, 1, 1, 1, 1, 1, 1, 1, 1, 1, 1, 1, 1, 1, 1, 1, 1, 1, 1, 1, 1, 1, 1, 1, 1, 1, 1, 1, 1, 1, 1, 1, 1, 1, 1, 1, 1, 1, 1, 1, 1, 1, 1, 1, 1, 1, 1, 1, 1, 1, 1, 1, 1, 1, 1, 1, 1, 1, 1, 1, 1, 1, 1, 1, 1, 1, 1, 1, 1, 1, 1, 1, 1, 1, 1, 1, 1, 1, 1, 1, 1, 1, 1, 1, 1, 1, 1, 1, 1, 1, 1, 1, 1, 1, 1, 1, 1, 1, 1, 1, 1, 1, 1, 1, 1, 1, 1, 1, 1, 1, 1, 1, 1, 1, 1, 1, 1, 1, 1, 1, 1, 1, 1, 1, 1, 1, 1, 1, 1, 1, 1, 1, 1, 1, 1, 1, 1, 1, 1, 1, 1, 1, 1, 1, 1, 1, 1, 1, 1, 1, 1, 1, 1, 1, 1, 1, 1, 1, 1, 1, 1, 1, 1, 1, 1, 1, 1, 1, 1, 1, 1];
Lower_Bound = [0, 1, 2, 3, 4, 9, 8, 9, 10, 11, 12, 13, 14, 17, 16, 17, 18, 19, 20, 23, 22, 23, 24, 25, 26, 27, 28, 29, 30, 31, 32, 33, 34, 35, 36, 37, 40, 41, 42, 1, 2, 3, 4, 5, 6, 7, 8, 9, 10, 11, 12, 13, 14, 15, 16, 17, 18, 19, 20, 21, 22, 23, 24, 25, 26, 27, 28, 29, 32, 33, 34, 35, 36, 37, 38, 39, 40, 41, 42, 8, 3, 4, 5, 6, 7, 10, 9, 12, 11, 12, 13, 14, 15, 16, 17, 18, 19, 20, 21, 22, 23, 24, 29, 28, 27, 28, 29, 30, 31, 32, 33, 34, 37, 38, 39, 40, 41, 44, 43, 7, 6, 5, 6, 7, 8, 9, 10, 11, 12, 13, 14, 15, 16, 17, 20, 19, 20, 25, 24, 23, 24, 25, 26, 27, 28, 29, 30, 31, 32, 33, 34, 35, 36, 37, 38, 41, 42, 43, 44, 8, 7, 8, 7, 8, 9, 10, 11, 12, 13, 14, 15, 16, 17, 18, 19, 22, 21, 22, 23, 24, 25, 26, 27, 28, 29, 30, 31, 32, 33, 34, 35, 36, 37, 38, 39, 40, 41, 42, 43, 9, 10, 11, 12, 13, 16, 17, 18, 19, 22, 15, 16, 17, 18, 19, 20, 21, 24, 23, 24, 25, 26, 27, 28, 29, 30, 31, 32, 33, 36, 35, 36, 37, 38, 39, 42, 41, 42, 43, 44, 12, 11, 12, 13, 14, 15, 16, 21, 20, 21, 18, 17, 18, 19, 20, 21, 22, 23, 24, 25, 26, 27, 28, 29, 30, 31, 32, 33, 34, 35, 38, 37, 38, 39, 40, 41, 44, 43, 44, 45, 13, 14, 13, 14, 15, 16, 17, 18, 19, 20, 19, 20, 19, 20, 21, 22, 23, 26, 25, 26, 31, 30, 29, 32, 31, 32, 33, 34, 35, 42, 41, 40, 39, 40, 41, 42, 45, 46, 45, 46, 18, 17, 16, 15, 16, 17, 18, 19, 20, 21, 22, 21, 22, 23, 24, 25, 26, 27, 28, 27, 32, 31, 32, 33, 36, 37, 36, 35, 36, 37, 38, 39, 40, 41, 42, 43, 44, 45, 46, 47, 19, 20, 17, 18, 17, 30, 29, 28, 27, 26, 25, 24, 23, 24, 25, 26, 27, 28, 29, 30, 33, 34, 33, 34, 35, 36, 37, 38, 39, 40, 39, 42, 41, 42, 43, 44, 45, 46, 47, 48, 22, 21, 20, 19, 24, 27, 26, 27, 28, 27, 26, 25, 26, 25, 26, 27, 28, 29, 32, 31, 32, 33, 34, 35, 36, 37, 38, 39, 40, 41, 42, 43, 44, 43, 46, 45, 46, 47, 50, 49, 23, 22, 21, 22, 23, 24, 25, 26, 27, 28, 27, 28, 27, 28, 27, 28, 29, 30, 31, 32, 33, 34, 35, 36, 37, 38, 39, 40, 41, 42, 43, 44, 45, 46, 47, 50, 51, 52, 51, 52, 24, 23, 24, 23, 24, 25, 28, 27, 28, 31, 30, 29, 30, 29, 30, 29, 30, 31, 32, 33, 34, 35, 36, 37, 40, 39, 40, 41, 42, 43, 44, 45, 46, 47, 48, 49, 52, 53, 54, 53, 25, 26, 25, 26, 25, 26, 29, 30, 29, 30, 31, 32, 31, 32, 31, 32, 31, 32, 33, 34, 35, 38, 37, 38, 39, 40, 41, 42, 43, 44, 45, 46, 47, 48, 49, 50, 51, 52, 53, 54, 28, 27, 28, 27, 28, 27, 28, 29, 30, 31, 32, 33, 34, 35, 34, 33, 34, 35, 36, 35, 36, 37, 38, 39, 42, 41, 42, 47, 46, 45, 46, 47, 48, 49, 50, 51, 52, 53, 54, 55, 29, 30, 29, 30, 29, 30, 29, 30, 31, 32, 33, 34, 35, 36, 35, 36, 35, 36, 37, 38, 37, 38, 39, 42, 43, 44, 43, 44, 45, 46, 47, 48, 49, 50, 51, 54, 53, 54, 55, 56, 32, 31, 32, 31, 32, 31, 32, 31, 32, 33, 34, 35, 36, 37, 38, 37, 38, 37, 38, 39, 40, 39, 40, 41, 42, 43, 44, 45, 48, 47, 50, 49, 50, 51, 52, 53, 54, 55, 56, 57, 33, 34, 33, 34, 33, 34, 33, 34, 33, 34, 35, 36, 37, 38, 39, 40, 39, 40, 39, 40, 41, 42, 45, 44, 43, 44, 45, 46, 47, 48, 49, 50, 51, 54, 53, 54, 55, 56, 57, 58, 36, 35, 36, 35, 36, 35, 36, 35, 36, 35, 36, 37, 38, 39, 40, 41, 42, 41, 42, 41, 42, 43, 44, 45, 46, 51, 50, 51, 50, 49, 50, 51, 52, 53, 54, 55, 56, 57, 58, 59, 37, 38, 37, 38, 37, 38, 37, 38, 37, 38, 37, 38, 39, 40, 41, 42, 43, 44, 43, 44, 43, 44, 45, 48, 47, 48, 49, 50, 51, 52, 51, 52, 53, 54, 55, 56, 57, 58, 59];
Upper_Bound = [0, 1, 2, 3, 4, 9, 8, 9, 10, 11, 12, 13, 14, 17, 16, 17, 18, 19, 20, 23, 22, 23, 24, 25, 26, 27, 28, 29, 30, 31, 32, 33, 34, 35, 36, 37, 40, 41, 42, 1, 2, 3, 4, 5, 6, 7, 8, 9, 10, 11, 12, 13, 14, 15, 16, 17, 18, 19, 20, 21, 22, 23, 24, 25, 26, 27, 28, 29, 32, 33, 34, 35, 36, 37, 38, 39, 40, 41, 42, 8, 3, 4, 5, 6, 7, 10, 9, 12, 11, 12, 13, 14, 15, 16, 17, 18, 19, 20, 21, 22, 23, 24, 29, 28, 27, 28, 29, 30, 31, 32, 33, 34, 37, 38, 39, 40, 41, 44, 43, 7, 6, 5, 6, 7, 8, 9, 10, 11, 12, 13, 14, 15, 16, 17, 20, 19, 20, 25, 24, 23, 24, 25, 26, 27, 28, 29, 30, 31, 32, 33, 34, 35, 36, 37, 38, 41, 42, 43, 44, 8, 7, 8, 7, 8, 9, 10, 11, 12, 13, 14, 15, 16, 17, 18, 19, 22, 21, 22, 23, 24, 25, 26, 27, 28, 29, 30, 31, 32, 33, 34, 35, 36, 37, 38, 39, 40, 41, 42, 43, 9, 10, 11, 12, 13, 16, 17, 18, 19, 22, 15, 16, 17, 18, 19, 20, 21, 24, 23, 24, 25, 26, 27, 28, 29, 30, 31, 32, 33, 36, 35, 36, 37, 38, 39, 42, 41, 42, 43, 44, 12, 11, 12, 13, 14, 15, 16, 21, 20, 21, 18, 17, 18, 19, 20, 21, 22, 23, 24, 25, 26, 27, 28, 29, 30, 31, 32, 33, 34, 35, 38, 37, 38, 39, 40, 41, 44, 43, 44, 45, 13, 14, 13, 14, 15, 16, 17, 18, 19, 20, 19, 20, 19, 20, 21, 22, 23, 26, 25, 26, 31, 30, 29, 32, 31, 32, 33, 34, 35, 42, 41, 40, 39, 40, 41, 42, 45, 46, 45, 46, 18, 17, 16, 15, 16, 17, 18, 19, 20, 21, 22, 21, 22, 23, 24, 25, 26, 27, 28, 27, 32, 31, 32, 33, 36, 37, 36, 35, 36, 37, 38, 39, 40, 41, 42, 43, 44, 45, 46, 47, 19, 20, 17, 18, 17, 30, 29, 28, 27, 26, 25, 24, 23, 24, 25, 26, 27, 28, 29, 30, 33, 34, 33, 34, 35, 36, 37, 38, 39, 40, 39, 42, 41, 42, 43, 44, 45, 46, 47, 48, 22, 21, 20, 19, 24, 27, 26, 27, 28, 27, 26, 25, 26, 25, 26, 27, 28, 29, 32, 31, 32, 33, 34, 35, 36, 37, 38, 39, 40, 41, 42, 43, 44, 43, 46, 45, 46, 47, 50, 49, 23, 22, 21, 22, 23, 24, 25, 26, 27, 28, 27, 28, 27, 28, 27, 28, 29, 30, 31, 32, 33, 34, 35, 36, 37, 38, 39, 40, 41, 42, 43, 44, 45, 46, 47, 50, 51, 52, 51, 52, 24, 23, 24, 23, 24, 25, 28, 27, 28, 31, 30, 29, 30, 29, 30, 29, 30, 31, 32, 33, 34, 35, 36, 37, 40, 39, 40, 41, 42, 43, 44, 45, 46, 47, 48, 49, 52, 53, 54, 53, 25, 26, 25, 26, 25, 26, 29, 30, 29, 30, 31, 32, 31, 32, 31, 32, 31, 32, 33, 34, 35, 38, 37, 38, 39, 40, 41, 42, 43, 44, 45, 46, 47, 48, 49, 50, 51, 52, 53, 54, 28, 27, 28, 27, 28, 27, 28, 29, 30, 31, 32, 33, 34, 35, 34, 33, 34, 35, 36, 35, 36, 37, 38, 39, 42, 41, 42, 47, 46, 45, 46, 47, 48, 49, 50, 51, 52, 53, 54, 55, 29, 30, 29, 30, 29, 30, 29, 30, 31, 32, 33, 34, 35, 36, 35, 36, 35, 36, 37, 38, 37, 38, 39, 42, 43, 44, 43, 44, 45, 46, 47, 48, 49, 50, 51, 54, 53, 54, 55, 56, 32, 31, 32, 31, 32, 31, 32, 31, 32, 33, 34, 35, 36, 37, 38, 37, 38, 37, 38, 39, 40, 39, 40, 41, 42, 43, 44, 45, 48, 47, 50, 49, 50, 51, 52, 53, 54, 55, 56, 57, 33, 34, 33, 34, 33, 34, 33, 34, 33, 34, 35, 36, 37, 38, 39, 40, 39, 40, 39, 40, 41, 42, 45, 44, 43, 44, 45, 46, 47, 48, 49, 50, 51, 54, 53, 54, 55, 56, 57, 58, 36, 35, 36, 35, 36, 35, 36, 35, 36, 35, 36, 37, 38, 39, 40, 41, 42, 41, 42, 41, 42, 43, 44, 45, 46, 51, 50, 51, 50, 49, 50, 51, 52, 53, 54, 55, 56, 57, 58, 59, 37, 38, 37, 38, 37, 38, 37, 38, 37, 38, 37, 38, 39, 40, 41, 42, 43, 44, 43, 44, 43, 44, 45, 48, 47, 48, 49, 50, 51, 52, 51, 52, 53, 54, 55, 56, 57, 58, 59];
Start = 1;
End = 798;
Time = 59;
